(set-option :produce-models true)
(set-logic QF_UF)
(declare-fun p8() Bool)
(declare-fun p18() Bool)
(declare-fun p6() Bool)
(declare-fun p9() Bool)
(declare-fun p22() Bool)
(declare-fun p12() Bool)
(declare-fun p17() Bool)
(declare-fun p16() Bool)
(declare-fun p14() Bool)
(declare-fun p20() Bool)
(declare-fun p19() Bool)
(declare-fun p1() Bool)
(declare-fun p2() Bool)
(declare-fun p10() Bool)
(declare-fun p24() Bool)
(declare-fun p11() Bool)
(declare-fun p21() Bool)
(declare-fun p7() Bool)
(declare-fun p15() Bool)
(declare-fun p0() Bool)
(declare-fun p5() Bool)
(declare-fun p3() Bool)
(declare-fun p23() Bool)
(declare-fun p4() Bool)
(declare-fun p13() Bool)
(assert
(and (or p8 p18 (not p6)) (or (not p9) (not p22) (not p22)) (or p12 p17 (not p6)) (or p9 p16 (not p14)) (or p20 (not p12) (not p19)) (or (not p17) p20 p9) (or (not p6) (not p1) (not p2)) (or p10 (not p24) (not p11)) (or (not p21) p9 (not p21)) (or (not p7) (not p12) (not p18)) (or p15 p8 (not p16)) (or p12 (not p24) p16) (or (not p14) p0 (not p5)) (or p18 (not p8) p0) (or p5 p7 p14) (or p19 (not p0) (not p11)) (or p2 p15 (not p1)) (or p17 (not p17) (not p11)) (or (not p14) (not p0) (not p3)) (or p14 p1 p6) (or (not p17) p0 (not p20)) (or p23 (not p16) p20) (or (not p21) p8 p4) (or (not p21) (not p23) p21) (or (not p3) p14 p14) (or p19 (not p15) p16) (or (not p24) (not p16) p12) (or (not p22) (not p5) (not p5)) (or p18 (not p2) p20) (or (not p21) p2 p19) (or p12 (not p2) (not p18)) (or (not p19) p24 p13) (or p20 p6 (not p9)) (or (not p16) p2 p5) (or p11 p5 p13) (or (not p5) (not p24) p17) (or (not p5) (not p2) (not p21)) (or p21 p16 p23) (or p11 (not p17) (not p0)) (or p3 p3 (not p0)) (or (not p14) (not p10) p22) (or p13 (not p20) (not p6)) (or p24 p9 (not p14)) (or (not p9) p18 p9) (or p8 (not p19) p12) (or p21 p22 p6) (or (not p23) p9 (not p18)) (or p18 (not p20) (not p22)) (or (not p10) p13 p16) (or p22 (not p8) (not p17)) (or (not p22) p15 (not p19)) (or (not p13) p20 (not p13)) (or (not p19) (not p5) (not p7)) (or (not p5) p5 p22) (or p9 (not p9) (not p9)) (or p22 (not p5) (not p15)) (or p8 (not p3) (not p21)) (or (not p17) (not p3) (not p11)) (or p24 (not p12) p2) (or p17 (not p1) p17) (or p10 (not p18) (not p0)) (or (not p15) (not p23) p5) (or p1 (not p16) (not p9)) (or (not p0) p20 p19) (or (not p8) p21 (not p20)) (or p1 (not p19) p21) (or (not p17) p12 (not p12)) (or (not p12) (not p11) p1) (or p14 p19 p14) (or p3 p2 (not p10)) (or p0 (not p20) p0) (or p8 p14 (not p2)) (or p12 (not p2) (not p10)) (or (not p2) p15 p23) (or p12 (not p21) p0) (or p16 p23 (not p2)) (or p3 (not p2) p15) (or (not p1) p16 p19) (or (not p6) p10 p22) (or (not p3) p15 p17) (or p1 (not p23) p18) (or (not p8) p22 p19) (or (not p14) (not p5) p15) (or (not p1) p10 (not p8)) (or (not p0) (not p1) p8) (or (not p22) (not p17) p24) (or p16 (not p7) (not p21)) (or (not p15) p7 p0) (or (not p11) p4 (not p10)) (or p24 p18 p18) (or p19 (not p4) (not p0)) (or (not p22) (not p2) p19) (or (not p16) (not p24) (not p17)) (or p21 p20 p16) (or (not p6) (not p11) (not p11)) (or p22 (not p13) (not p2)) (or p19 p6 (not p23)) (or p7 p2 p18) (or (not p19) p14 (not p12)) (or (not p17) p8 (not p23)) (or (not p10) p6 (not p22)) (or (not p14) (not p2) (not p5)) (or p17 p0 (not p8)) (or (not p4) (not p6) (not p11)) (or (not p12) (not p7) (not p21)) (or p23 (not p20) (not p19)) (or p21 p11 (not p22)))
)
(check-sat)
(get-model)
